(set-info :smt-lib-version 2.7)
(set-logic QF_NIA)
(set-info :source  | 
Generated by: Johannes Bauer
Generated on: 2026-06-18
Generator: mgm A12 Test Data Generator
Application: ELSTER
Target solver: Z3, Yices2, CVC5
Script is based on the ELSTER form: capital gains tax registration (A / KapEStInvStG)
Characteristic of the form: easy.
In this script, all terms of the form (* x1 x2 x3 ...) are in the form (* x1 c2 c3 ...),
all terms of the form (div x y) are in the form (div x c) and the symbol mod is exclusively used in the form (mod x c),
where x, y, and x1, x2, x3 ... are free constants and c, c2, c3 ... are terms in the form n or (-n) for some numeral n.
The script starts with the base constraints, which define a valid data set for the corresponding form. After the first (push 1), control constraints follow.
The goal of the control constraints in this script is to fill up a data set with values, after the characteristics of the high test coverage were placed.
number variables: 125, number constraints: 168
"https://www.elster.de/eportal/start?locale=en_US"
"https://www.mgm-tp.com/q12-tdg.html"
"https://a12.ai/public-sector"
|)
(set-info :license "https://creativecommons.org/licenses/by/4.0/")
(set-info :category "industrial")
(set-info :major-phase |variable declarations|)
(declare-fun I1-i () Int)
(declare-fun I2-N () Int)
(declare-fun B3-F () Bool)
(declare-fun I3-i () Int)
(declare-fun B4-F () Bool)
(declare-fun B5-F () Bool)
(declare-fun I5-y () Int)
(declare-fun B6-F () Bool)
(declare-fun I6-N () Int)
(declare-fun B7-F () Bool)
(declare-fun I8-N () Int)
(declare-fun I9-y () Int)
(declare-fun I9-m () Int)
(declare-fun I9-d () Int)
(declare-fun I10-y () Int)
(declare-fun I10-m () Int)
(declare-fun I10-d () Int)
(declare-fun I11 () Int)
(declare-fun I12 () Int)
(declare-fun I13 () Int)
(declare-fun I14 () Int)
(declare-fun I15-s-y () Int)
(declare-fun I15-s-m () Int)
(declare-fun I15-s-d () Int)
(declare-fun I15-e-y () Int)
(declare-fun I15-e-m () Int)
(declare-fun I15-e-d () Int)
(declare-fun I16-y () Int)
(declare-fun I16-m () Int)
(declare-fun I16-d () Int)
(declare-fun I17-y () Int)
(declare-fun I17-m () Int)
(declare-fun I17-d () Int)
(declare-fun I18 () Int)
(declare-fun I19-s-y () Int)
(declare-fun I19-s-m () Int)
(declare-fun I19-s-d () Int)
(declare-fun I19-e-y () Int)
(declare-fun I19-e-m () Int)
(declare-fun I19-e-d () Int)
(declare-fun I20-y () Int)
(declare-fun I20-m () Int)
(declare-fun I20-d () Int)
(declare-fun I21-y () Int)
(declare-fun I21-m () Int)
(declare-fun I21-d () Int)
(declare-fun I22 () Int)
(declare-fun I23 () Int)
(declare-fun I24 () Int)
(declare-fun I25-m () Int)
(declare-fun I25-d () Int)
(declare-fun I26-y () Int)
(declare-fun I26-m () Int)
(declare-fun I26-d () Int)
(declare-fun I27 () Int)
(declare-fun I28 () Int)
(declare-fun I29 () Int)
(declare-fun I30 () Int)
(declare-fun I31-y () Int)
(declare-fun I31-m () Int)
(declare-fun I31-d () Int)
(declare-fun I32 () Int)
(declare-fun I33 () Int)
(declare-fun I34 () Int)
(declare-fun I35 () Int)
(declare-fun I36 () Int)
(declare-fun I37 () Int)
(declare-fun I38 () Int)
(declare-fun I39 () Int)
(declare-fun I40 () Int)
(declare-fun B41-F () Bool)
(declare-fun B42-F () Bool)
(declare-fun I42 () Int)
(declare-fun B43-F () Bool)
(declare-fun I43 () Int)
(declare-fun B44-F () Bool)
(declare-fun I44 () Int)
(declare-fun I45 () Int)
(declare-fun I46 () Int)
(declare-fun B47-F () Bool)
(declare-fun I47-y () Int)
(declare-fun I47-m () Int)
(declare-fun I47-d () Int)
(declare-fun B48-F () Bool)
(declare-fun B49-F () Bool)
(declare-fun I49 () Int)
(declare-fun B50-F () Bool)
(declare-fun I50 () Int)
(declare-fun B51-F () Bool)
(declare-fun B52-F () Bool)
(declare-fun B53-F () Bool)
(declare-fun I53 () Int)
(declare-fun B54-F () Bool)
(declare-fun I54 () Int)
(declare-fun B55-F () Bool)
(declare-fun I55 () Int)
(declare-fun B56-F () Bool)
(declare-fun I56 () Int)
(declare-fun B57-F () Bool)
(declare-fun B58-F () Bool)
(declare-fun B59-F () Bool)
(declare-fun B60-F () Bool)
(declare-fun I60 () Int)
(declare-fun B61-F () Bool)
(declare-fun I61 () Int)
(declare-fun B62-F () Bool)
(declare-fun I62 () Int)
(declare-fun B63-F () Bool)
(declare-fun I63 () Int)
(declare-fun B64-F () Bool)
(declare-fun B65-F () Bool)
(declare-fun B66-F () Bool)
(declare-fun I66 () Int)
(declare-fun B67-F () Bool)
(declare-fun I67 () Int)
(declare-fun B68-F () Bool)
(declare-fun B69-F () Bool)
(declare-fun I69 () Int)
(declare-fun B70-F () Bool)
(declare-fun I71 () Int)
(declare-fun B72-F () Bool)
(declare-fun B73-F () Bool)
(declare-fun B74-F () Bool)
(declare-fun B75-F () Bool)
(declare-fun B76-F () Bool)
(set-info :major-phase |base constraints|)
(set-info :base-constraint-type ||)
(assert (and (or (= I12 0) (distinct I13 0)) (distinct I14 0)))
(assert (or (< 0 I26-y) (and (= 0 I26-y) (< 0 I26-m)) (and (= 0 I26-y) (= 0 I26-m) (< 0 I26-d))))
(assert (and (<= 2024 (ite B5-F I5-y 0)) (distinct 2024 (ite B5-F I5-y 0)) (> I25-m I6-N)))
(assert (or (< I6-N 5) (> I6-N 12)))
(assert (or (< I6-N 5) (> I6-N 12)))
(assert (and (< I6-N 5) (<= I6-N 12)))
(assert (and (or (distinct 2024 (ite B5-F I5-y 0)) (>= I25-m (- I6-N 4))) (or (= 2024 (ite B5-F I5-y 0)) (>= 2024 (- (ite B5-F I5-y 0) 1))) (or (= 2024 (ite B5-F I5-y 0)) (distinct 2024 (- (ite B5-F I5-y 0) 1)) (<= I25-m 8) (>= I25-m (- (+ I6-N 12) 4))) (distinct 2024 (ite B5-F I5-y 0)) (= 2024 (- (ite B5-F I5-y 0) 1)) (> I25-m 8)))
(assert (and (or (distinct 2024 (ite B5-F I5-y 0)) (>= I25-m (- I6-N 4))) (distinct 2024 (ite B5-F I5-y 0)) (>= 2024 (- (ite B5-F I5-y 0) 1)) (or (= 2024 (ite B5-F I5-y 0)) (distinct 2024 (- (ite B5-F I5-y 0) 1)) (<= I25-m 8) (>= I25-m (- (+ I6-N 12) 4))) (or (= 2024 (ite B5-F I5-y 0)) (distinct 2024 (- (ite B5-F I5-y 0) 1)) (> I25-m 8))))
(assert (and (or (distinct 2024 (ite B5-F I5-y 0)) (>= I25-m (- I6-N 4))) (or (= 2024 (ite B5-F I5-y 0)) (>= 2024 (- (ite B5-F I5-y 0) 1))) (distinct 2024 (ite B5-F I5-y 0)) (= 2024 (- (ite B5-F I5-y 0) 1)) (> I25-m 8) (>= I25-m (- (+ I6-N 12) 4)) (or (= 2024 (ite B5-F I5-y 0)) (distinct 2024 (- (ite B5-F I5-y 0) 1)) (> I25-m 8))))
(assert (distinct I29 0))
(assert (and (<= I31-y (ite B5-F I5-y 0)) (> I31-m I6-N) (distinct I31-y (ite B5-F I5-y 0))))
(assert (and (>= I15-s-y (- I15-e-y 1)) (or (distinct I15-s-y (- I15-e-y 1)) (>= I15-s-m I15-e-m)) (= I15-s-y (- I15-e-y 1)) (= I15-s-m I15-e-m) (>= I15-s-d (+ I15-e-d 1))))
(assert (or (= I22 0) (distinct I23 0)))
(assert (and (>= I19-s-y (- I19-e-y 1)) (= I19-s-y (- I19-e-y 1)) (>= I19-s-m I19-e-m) (or (distinct I19-s-y (- I19-e-y 1)) (distinct I19-s-m I19-e-m) (>= I19-s-d (+ I19-e-d 1)))))
(assert (and (>= I19-s-y (- I19-e-y 1)) (or (distinct I19-s-y (- I19-e-y 1)) (>= I19-s-m I19-e-m)) (= I19-s-y (- I19-e-y 1)) (distinct I19-s-m I19-e-m) (< I19-s-d (+ I19-e-d 1))))
(set-info :base-constraint-type |constraints defining hierarchy (group is filled, if a child is filled)|)
(assert (not (or B47-F B48-F)))
(assert (= B48-F (or B49-F B50-F)))
(assert (= B72-F (or B73-F B74-F)))
(assert (= B41-F (or B42-F B43-F B44-F)))
(assert (= B51-F (or B52-F B70-F)))
(assert (= B52-F (or B53-F B54-F B55-F B56-F B57-F B58-F B59-F B60-F B61-F B62-F B63-F B64-F B65-F B66-F B67-F B68-F B69-F)))
(set-info :base-constraint-type |domainconstraints number-fields|)
(assert (ite B49-F (and (<= I49 999999999999) (>= I49 0)) (= I49 0)))
(assert (ite B50-F (and (<= I50 999999999999) (>= I50 0)) (= I50 0)))
(assert (and (<= I45 999999999999) (>= I45 (- 999999999999))))
(assert (and (<= I46 99999999999999) (>= I46 (- 99999999999999))))
(assert (and (<= I11 99999999999999) (>= I11 (- 99999999999999))))
(assert (and (<= I12 999999999999) (>= I12 (- 999999999999))))
(assert (and (<= I13 999999999999) (>= I13 (- 999999999999))))
(assert (and (<= I14 999999999999) (>= I14 (- 999999999999))))
(assert (and (<= I27 99999999999999) (>= I27 (- 99999999999999))))
(assert (and (<= I28 99999999999999) (>= I28 (- 99999999999999))))
(assert (and (<= I29 999999999999) (>= I29 (- 999999999999))))
(assert (and (<= I30 99999999999999) (>= I30 (- 99999999999999))))
(assert (and (<= I32 999999999999) (>= I32 0)))
(assert (and (<= I33 999999999999) (>= I33 0)))
(assert (and (<= I34 99999999999999) (>= I34 0)))
(assert (and (<= I35 999999999999) (>= I35 0)))
(assert (and (<= I36 999999999999) (>= I36 0)))
(assert (and (<= I37 99999999999999) (>= I37 0)))
(assert (and (<= I38 999999999999) (>= I38 0)))
(assert (and (<= I39 999999999999) (>= I39 0)))
(assert (and (<= I40 99999999999999) (>= I40 0)))
(assert (ite B42-F (and (<= I42 999999999999) (>= I42 (- 999999999999))) (= I42 0)))
(assert (ite B43-F (and (<= I43 999999999999) (>= I43 (- 999999999999))) (= I43 0)))
(assert (ite B44-F (and (<= I44 99999999999999) (>= I44 (- 99999999999999))) (= I44 0)))
(assert (and (<= I18 999999999999) (>= I18 (- 999999999999))))
(assert (and (<= I22 999999999999) (>= I22 (- 999999999999))))
(assert (and (<= I23 999999999999) (>= I23 (- 999999999999))))
(assert (and (<= I24 99999999999999) (>= I24 (- 99999999999999))))
(assert (ite B56-F (and (<= I56 99999999999999) (>= I56 (- 9999999999999))) (= I56 0)))
(assert (ite B55-F (and (<= I55 99999999999999) (>= I55 (- 9999999999999))) (= I55 0)))
(assert (ite B53-F (and (<= I53 99999999999999) (>= I53 (- 9999999999999))) (= I53 0)))
(assert (ite B54-F (and (<= I54 99999999999999) (>= I54 (- 9999999999999))) (= I54 0)))
(assert (ite B57-F true false))
(assert (ite B59-F true false))
(assert (ite B58-F true false))
(assert (ite B60-F (and (<= I60 99999999999999) (>= I60 (- 9999999999999))) (= I60 0)))
(assert (ite B61-F (and (<= I61 99999999999999) (>= I61 (- 9999999999999))) (= I61 0)))
(assert (ite B62-F (and (<= I62 99999999999999) (>= I62 (- 9999999999999))) (= I62 0)))
(assert (ite B63-F (and (<= I63 99999999999999) (>= I63 (- 9999999999999))) (= I63 0)))
(assert (ite B67-F (and (<= I67 99999999999999) (>= I67 (- 9999999999999))) (= I67 0)))
(assert (ite B64-F true false))
(assert (ite B65-F true false))
(assert (ite B66-F (and (<= I66 99999999999999) (>= I66 (- 9999999999999))) (= I66 0)))
(assert (ite B68-F true false))
(assert (ite B69-F (and (<= I69 99999999999999) (>= I69 (- 9999999999999))) (= I69 0)))
(assert (ite B70-F (and (<= I71 99999999999999) (>= I71 (- 9999999999999))) (= I71 0)))
(set-info :base-constraint-type |domainconstraints date-fields|)
(assert (and (ite B47-F (and (> I47-y 1900) (< I47-y 2100)) (= I47-y 0)) (ite B47-F (and (> I47-m 0) (<= I47-m 12)) (= I47-m 0)) (ite B47-F (and (> I47-d 0) (<= I47-d (ite (or (= I47-m 0) (= I47-m 1) (= I47-m 3) (= I47-m 5) (= I47-m 7) (= I47-m 8) (= I47-m 10) (= I47-m 12)) 31 (ite (or (= I47-m 4) (= I47-m 6) (= I47-m 9) (= I47-m 11)) 30 (ite (= (mod I47-y 4) 0) 29 28))))) (= I47-d 0))))
(assert (ite B5-F (and (> I5-y 1900) (< I5-y 2100)) (= I5-y 0)))
(assert (and (> I10-y 1900) (< I10-y 2100) (> I10-m 0) (<= I10-m 12) (> I10-d 0) (<= I10-d (ite (or (= I10-m 0) (= I10-m 1) (= I10-m 3) (= I10-m 5) (= I10-m 7) (= I10-m 8) (= I10-m 10) (= I10-m 12)) 31 (ite (or (= I10-m 4) (= I10-m 6) (= I10-m 9) (= I10-m 11)) 30 (ite (= (mod I10-y 4) 0) 29 28))))))
(assert (and (> I9-y 1900) (< I9-y 2100) (> I9-m 0) (<= I9-m 12) (> I9-d 0) (<= I9-d (ite (or (= I9-m 0) (= I9-m 1) (= I9-m 3) (= I9-m 5) (= I9-m 7) (= I9-m 8) (= I9-m 10) (= I9-m 12)) 31 (ite (or (= I9-m 4) (= I9-m 6) (= I9-m 9) (= I9-m 11)) 30 (ite (= (mod I9-y 4) 0) 29 28))))))
(assert (and (> I25-m 0) (<= I25-m 12) (> I25-d 0) (<= I25-d (ite (or (= I25-m 0) (= I25-m 1) (= I25-m 3) (= I25-m 5) (= I25-m 7) (= I25-m 8) (= I25-m 10) (= I25-m 12)) 31 (ite (or (= I25-m 4) (= I25-m 6) (= I25-m 9) (= I25-m 11)) 30 29)))))
(assert (and (> I26-y 1900) (< I26-y 2100) (> I26-m 0) (<= I26-m 12) (> I26-d 0) (<= I26-d (ite (or (= I26-m 0) (= I26-m 1) (= I26-m 3) (= I26-m 5) (= I26-m 7) (= I26-m 8) (= I26-m 10) (= I26-m 12)) 31 (ite (or (= I26-m 4) (= I26-m 6) (= I26-m 9) (= I26-m 11)) 30 (ite (= (mod I26-y 4) 0) 29 28))))))
(assert (and (> I31-y 1900) (< I31-y 2100) (> I31-m 0) (<= I31-m 12) (> I31-d 0) (<= I31-d (ite (or (= I31-m 0) (= I31-m 1) (= I31-m 3) (= I31-m 5) (= I31-m 7) (= I31-m 8) (= I31-m 10) (= I31-m 12)) 31 (ite (or (= I31-m 4) (= I31-m 6) (= I31-m 9) (= I31-m 11)) 30 (ite (= (mod I31-y 4) 0) 29 28))))))
(assert (and (> I17-y 1900) (< I17-y 2100) (> I17-m 0) (<= I17-m 12) (> I17-d 0) (<= I17-d (ite (or (= I17-m 0) (= I17-m 1) (= I17-m 3) (= I17-m 5) (= I17-m 7) (= I17-m 8) (= I17-m 10) (= I17-m 12)) 31 (ite (or (= I17-m 4) (= I17-m 6) (= I17-m 9) (= I17-m 11)) 30 (ite (= (mod I17-y 4) 0) 29 28))))))
(assert (and (> I16-y 1900) (< I16-y 2100) (> I16-m 0) (<= I16-m 12) (> I16-d 0) (<= I16-d (ite (or (= I16-m 0) (= I16-m 1) (= I16-m 3) (= I16-m 5) (= I16-m 7) (= I16-m 8) (= I16-m 10) (= I16-m 12)) 31 (ite (or (= I16-m 4) (= I16-m 6) (= I16-m 9) (= I16-m 11)) 30 (ite (= (mod I16-y 4) 0) 29 28))))))
(assert (or (< I15-s-y I15-e-y) (and (= I15-s-y I15-e-y) (< I15-s-m I15-e-m)) (and (= I15-s-y I15-e-y) (= I15-s-m I15-e-m) (<= I15-s-d I15-e-d))))
(assert (and (>= I15-e-d 1) (<= I15-e-d (ite (or (= I15-e-m 0) (= I15-e-m 1) (= I15-e-m 3) (= I15-e-m 5) (= I15-e-m 7) (= I15-e-m 8) (= I15-e-m 10) (= I15-e-m 12)) 31 (ite (or (= I15-e-m 4) (= I15-e-m 6) (= I15-e-m 9) (= I15-e-m 11)) 30 (ite (= (mod I15-e-y 4) 0) 29 28))))))
(assert (and (>= I15-e-m 1) (<= I15-e-m 12)))
(assert (and (>= I15-e-y 1901) (<= I15-e-y 2099)))
(assert (and (>= I15-s-d 1) (<= I15-s-d (ite (or (= I15-s-m 0) (= I15-s-m 1) (= I15-s-m 3) (= I15-s-m 5) (= I15-s-m 7) (= I15-s-m 8) (= I15-s-m 10) (= I15-s-m 12)) 31 (ite (or (= I15-s-m 4) (= I15-s-m 6) (= I15-s-m 9) (= I15-s-m 11)) 30 (ite (= (mod I15-s-y 4) 0) 29 28))))))
(assert (and (>= I15-s-m 1) (<= I15-s-m 12)))
(assert (and (>= I15-s-y 1901) (<= I15-s-y 2099)))
(assert (and (> I21-y 1900) (< I21-y 2100) (> I21-m 0) (<= I21-m 12) (> I21-d 0) (<= I21-d (ite (or (= I21-m 0) (= I21-m 1) (= I21-m 3) (= I21-m 5) (= I21-m 7) (= I21-m 8) (= I21-m 10) (= I21-m 12)) 31 (ite (or (= I21-m 4) (= I21-m 6) (= I21-m 9) (= I21-m 11)) 30 (ite (= (mod I21-y 4) 0) 29 28))))))
(assert (and (> I20-y 1900) (< I20-y 2100) (> I20-m 0) (<= I20-m 12) (> I20-d 0) (<= I20-d (ite (or (= I20-m 0) (= I20-m 1) (= I20-m 3) (= I20-m 5) (= I20-m 7) (= I20-m 8) (= I20-m 10) (= I20-m 12)) 31 (ite (or (= I20-m 4) (= I20-m 6) (= I20-m 9) (= I20-m 11)) 30 (ite (= (mod I20-y 4) 0) 29 28))))))
(assert (or (< I19-s-y I19-e-y) (and (= I19-s-y I19-e-y) (< I19-s-m I19-e-m)) (and (= I19-s-y I19-e-y) (= I19-s-m I19-e-m) (<= I19-s-d I19-e-d))))
(assert (and (>= I19-e-d 1) (<= I19-e-d (ite (or (= I19-e-m 0) (= I19-e-m 1) (= I19-e-m 3) (= I19-e-m 5) (= I19-e-m 7) (= I19-e-m 8) (= I19-e-m 10) (= I19-e-m 12)) 31 (ite (or (= I19-e-m 4) (= I19-e-m 6) (= I19-e-m 9) (= I19-e-m 11)) 30 (ite (= (mod I19-e-y 4) 0) 29 28))))))
(assert (and (>= I19-e-m 1) (<= I19-e-m 12)))
(assert (and (>= I19-e-y 1901) (<= I19-e-y 2099)))
(assert (and (>= I19-s-d 1) (<= I19-s-d (ite (or (= I19-s-m 0) (= I19-s-m 1) (= I19-s-m 3) (= I19-s-m 5) (= I19-s-m 7) (= I19-s-m 8) (= I19-s-m 10) (= I19-s-m 12)) 31 (ite (or (= I19-s-m 4) (= I19-s-m 6) (= I19-s-m 9) (= I19-s-m 11)) 30 (ite (= (mod I19-s-y 4) 0) 29 28))))))
(assert (and (>= I19-s-m 1) (<= I19-s-m 12)))
(assert (and (>= I19-s-y 1901) (<= I19-s-y 2099)))
(set-info :base-constraint-type |constraints for date-strategy|)
(assert (and (> I8-N 1900) (< I8-N 2100)))
(assert (and (> I8-N 1900) (< I8-N 2100)))
(set-info :base-constraint-type |domainconstraints string fields|)
(assert (and (>= I8-N 0) (<= I8-N 9999)))
(set-info :base-constraint-type |domainconstraints index-based string fields|)
(assert (or (= I2-N 0) (= I2-N 1)))
(assert (ite B6-F (or (= I6-N 1) (= I6-N 2) (= I6-N 3) (= I6-N 4) (= I6-N 5) (= I6-N 6) (= I6-N 7) (= I6-N 8) (= I6-N 9) (= I6-N 10) (= I6-N 11) (= I6-N 12)) (= I6-N 0)))
(assert (or (= I1-i 1) (= I1-i 2) (= I1-i 3) (= I1-i 4) (= I1-i 5) (= I1-i 6) (= I1-i 7) (= I1-i 8) (= I1-i 9) (= I1-i 10) (= I1-i 11) (= I1-i 12) (= I1-i 13) (= I1-i 14) (= I1-i 15)))
(assert (ite B3-F (or (= I3-i 1) (= I3-i 2) (= I3-i 3) (= I3-i 4) (= I3-i 5) (= I3-i 6) (= I3-i 7) (= I3-i 8) (= I3-i 9) (= I3-i 10) (= I3-i 11) (= I3-i 12) (= I3-i 13) (= I3-i 14) (= I3-i 15)) (= I3-i 0)))
(set-info :base-constraint-type |constraints, guarding filling of calculations|)
(assert B70-F)
(set-info :base-constraint-type |constraints from validation-rules|)
(assert (not (and B50-F B49-F (distinct I49 0) (distinct I50 (div (* I49 15) 100)))))
(assert (not (and B47-F (or (< I47-y 2025) (> I47-y 2025)))))
(assert (not (and (or B74-F B73-F) (not (and B74-F B73-F)))))
(assert (not (and (not B53-F) (not B54-F) (not B55-F) (not B56-F) (not B57-F) (not B58-F) (not B59-F) (not B60-F) (not B61-F) (not B62-F) (not B63-F) (not B64-F) (not B65-F) (not B66-F) (not B67-F) (not B68-F) (not B69-F) (not B70-F))))
(assert (not (distinct I45 (+ I13 I14 I18 I23 I29 I33 I36 I39 I43 (- 1000397238191)))))
(assert (not (distinct I46 (+ I11 I24 I27 I28 I30 I34 I37 I40 I44 6466481929))))
(assert (not (and B5-F (or (< I5-y 2025) (> I5-y 2025)))))
(assert (not (or (> I10-y I9-y) (and (= I10-y I9-y) (> I10-m I9-m)) (and (= I10-y I9-y) (= I10-m I9-m) (> I10-d I9-d)))))
(assert (not (or (distinct I9-y (ite B5-F I5-y 0)) (distinct I9-m I6-N))))
(assert (not (>= (ite (and (>= I8-N 1) (<= I8-N 9999)) (+ (- I10-y I8-N) (ite (or (< I8-N I10-y) (and (= I8-N I10-y) (< 5 I10-m)) (and (= I8-N I10-y) (= 5 I10-m) (< 1 I10-d)) (and (= I8-N I10-y) (= 5 I10-m) (= 1 I10-d))) (ite (or (< 5 I10-m) (and (= 5 I10-m) (<= 1 I10-d))) 0 (- 1)) (ite (or (> 5 I10-m) (and (= 5 I10-m) (>= 1 I10-d))) 0 1))) 0) 1)))
(assert (not (< I9-y I8-N)))
(assert (not (> I8-N 2025)))
(assert (not (or (and (distinct I12 0) (= I13 0)) (= I14 0))))
(assert (not (> (ite (>= (- I11 (- 5499999999995)) 0) (- I11 (- 5499999999995)) (- (- I11 (- 5499999999995)))) 100)))
(assert (not (or (> (* I13 100) (+ (* I12 15) 100)) (> (* I14 100) (- 755)))))
(assert (not (> (ite (>= (- 3777545 (div (* I13 55) 10)) 0) (- 3777545 (div (* I13 55) 10)) (- (- 3777545 (div (* I13 55) 10)))) 100)))
(assert (not (> (ite (>= (- 1 (div (* I14 55) 10)) 0) (- 1 (div (* I14 55) 10)) (- (- 1 (div (* I14 55) 10)))) 100)))
(assert (not (< I26-y 2023)))
(assert (not (or (> 2024 (ite B5-F I5-y 0)) (and (= 2024 (ite B5-F I5-y 0)) (> I25-m I6-N)))))
(assert (not (and (>= I6-N 5) (<= I6-N 12))))
(assert (not (or (and (= 2024 (ite B5-F I5-y 0)) (< I25-m (- I6-N 4))) (and (distinct 2024 (ite B5-F I5-y 0)) (< 2024 (- (ite B5-F I5-y 0) 1))) (and (distinct 2024 (ite B5-F I5-y 0)) (= 2024 (- (ite B5-F I5-y 0) 1)) (> I25-m 8) (< I25-m (- (+ I6-N 12) 4))) (and (distinct 2024 (ite B5-F I5-y 0)) (= 2024 (- (ite B5-F I5-y 0) 1)) (<= I25-m 8)))))
(assert (not (= I29 0)))
(assert (not (> (ite (>= (- I27 (- 237)) 0) (- I27 (- 237)) (- (- I27 (- 237)))) 100)))
(assert (not (> (* I29 100) 15000000000085)))
(assert (not (> (ite (>= (- I28 (- 2184809831)) 0) (- I28 (- 2184809831)) (- (- I28 (- 2184809831)))) 100)))
(assert (not (> (ite (>= (- I30 (div (* I29 55) 10)) 0) (- I30 (div (* I29 55) 10)) (- (- I30 (div (* I29 55) 10)))) 100)))
(assert (not (or (and (distinct I32 0) (= I33 0)) (and (distinct I35 0) (= I36 0)) (and (distinct I38 0) (= I39 0)))))
(assert (not (> (ite (>= (- I34 (div (* I33 55) 10)) 0) (- I34 (div (* I33 55) 10)) (- (- I34 (div (* I33 55) 10)))) 100)))
(assert (not (or (> (* I33 100) (+ (* I32 15) 100)) (> (* I36 100) (+ (* I35 15) 100)) (> (* I39 100) (+ (* I38 15) 100)))))
(assert (not (> (ite (>= (- I37 (div (* I36 55) 10)) 0) (- I37 (div (* I36 55) 10)) (- (- I37 (div (* I36 55) 10)))) 100)))
(assert (not (> (ite (>= (- I40 (div (* I39 55) 10)) 0) (- I40 (div (* I39 55) 10)) (- (- I40 (div (* I39 55) 10)))) 100)))
(assert (not (and B42-F (distinct I42 0) (= I43 0))))
(assert (not (and B43-F B44-F (> (ite (>= (- I44 (div (* I43 55) 10)) 0) (- I44 (div (* I43 55) 10)) (- (- I44 (div (* I43 55) 10)))) 100))))
(assert (not (and B43-F (> (* I43 100) (+ (* I42 15) 100)))))
(assert (not (or (> I31-y (ite B5-F I5-y 0)) (and (> I31-m I6-N) (= I31-y (ite B5-F I5-y 0))))))
(assert (not (or (> I17-y I16-y) (and (= I17-y I16-y) (> I17-m I16-m)) (and (= I17-y I16-y) (= I17-m I16-m) (> I17-d I16-d)))))
(assert (not (or (distinct I16-y (ite B5-F I5-y 0)) (distinct I16-m I6-N))))
(assert (not (< I16-y 2025)))
(assert (not (= I18 0)))
(assert (not (> (* I18 100) 15000000000085)))
(assert (not (> (ite (>= (- 6462704384 (div (* I18 55) 10)) 0) (- 6462704384 (div (* I18 55) 10)) (- (- 6462704384 (div (* I18 55) 10)))) 100)))
(assert (not (or (> I15-e-y I16-y) (and (= I15-e-y I16-y) (> I15-e-m I16-m)) (and (= I15-e-y I16-y) (= I15-e-m I16-m) (> I15-e-d I16-d)))))
(assert (not (or (< I15-s-y (- I15-e-y 1)) (and (= I15-s-y (- I15-e-y 1)) (< I15-s-m I15-e-m)) (and (= I15-s-y (- I15-e-y 1)) (= I15-s-m I15-e-m) (< I15-s-d (+ I15-e-d 1))))))
(assert (not (or (> I21-y I20-y) (and (= I21-y I20-y) (> I21-m I20-m)) (and (= I21-y I20-y) (= I21-m I20-m) (> I21-d I20-d)))))
(assert (not (or (distinct I20-y (ite B5-F I5-y 0)) (distinct I20-m I6-N))))
(assert (not (< I20-y 2025)))
(assert (not (and (distinct I22 0) (= I23 0))))
(assert (not (> (ite (>= (- I24 (div (* I23 55) 10)) 0) (- I24 (div (* I23 55) 10)) (- (- I24 (div (* I23 55) 10)))) 100)))
(assert (not (> (* I23 100) (+ (* I22 15) 100))))
(assert (not (or (> I19-e-y I20-y) (and (= I19-e-y I20-y) (> I19-e-m I20-m)) (and (= I19-e-y I20-y) (= I19-e-m I20-m) (> I19-e-d I20-d)))))
(assert (not (or (< I19-s-y (- I19-e-y 1)) (and (= I19-s-y (- I19-e-y 1)) (< I19-s-m I19-e-m)) (and (= I19-s-y (- I19-e-y 1)) (= I19-s-m I19-e-m) (< I19-s-d (+ I19-e-d 1))))))
(assert (not B47-F))
(assert (and B5-F B6-F))
(assert (not (and B5-F B6-F (or (< 2026 I5-y) (and (= 2026 I5-y) (<= 6 I6-N))))))
(assert (not (and B5-F B6-F (or (< 2027 I5-y) (and (= 2027 I5-y) (<= 6 I6-N))))))
(assert (not (and B3-F (= I2-N 0))))
(assert (not (and B3-F (= I3-i I1-i))))
(assert (not (and (or B56-F B55-F B57-F B53-F B54-F B58-F B59-F B60-F B61-F B62-F B69-F B63-F B66-F B67-F B64-F B65-F B68-F) (not B70-F))))
(assert (not (and B70-F (or B56-F B55-F B57-F B53-F B54-F B58-F B59-F B60-F B61-F B62-F B69-F B63-F B66-F B67-F B64-F B65-F B68-F) (distinct I71 (+ I56 I55 I53 I54 I60 I61 I62 I69 I63 I66 I67 100003049149119)))))
(assert (not (and B70-F (not B56-F) (not B55-F) (not B57-F) (not B53-F) (not B54-F) (not B58-F) (not B59-F) (not B60-F) (not B61-F) (not B62-F) (not B69-F) (not B63-F) (not B66-F) (not B67-F) (not B64-F) (not B65-F) (not B68-F))))
(assert (not (and B70-F (distinct I71 (* I45 100)))))
(set-info :major-phase |control constraints|)
(push 1)
(assert B5-F)
(set-info :status sat)
(check-sat)
(push 1)
(assert B70-F)
(set-info :status sat)
(check-sat)
(push 1)
(assert B47-F)
(set-info :status unsat)
(check-sat)
(pop 1)
(push 1)
(assert B74-F)
(set-info :status sat)
(check-sat)
(push 1)
(assert B59-F)
(set-info :status sat)
(check-sat)
(push 1)
(assert B58-F)
(set-info :status sat)
(check-sat)
(push 1)
(assert B6-F)
(set-info :status sat)
(check-sat)
(push 1)
(assert B68-F)
(set-info :status sat)
(check-sat)
(push 1)
(assert B4-F)
(set-info :status sat)
(check-sat)
(push 1)
(assert B76-F)
(set-info :status sat)
(check-sat)
(push 1)
(assert B50-F)
(set-info :status unsat)
(check-sat)
(pop 1)
(push 1)
(assert B64-F)
(set-info :status sat)
(check-sat)
(push 1)
(assert B44-F)
(set-info :status sat)
(check-sat)
(push 1)
(assert B3-F)
(set-info :status sat)
(check-sat)
(push 1)
(assert B65-F)
(set-info :status sat)
(check-sat)
(push 1)
(assert B7-F)
(set-info :status sat)
(check-sat)
(push 1)
(assert B67-F)
(set-info :status sat)
(check-sat)
(push 1)
(assert B53-F)
(set-info :status sat)
(check-sat)
(push 1)
(assert B54-F)
(set-info :status sat)
(check-sat)
(push 1)
(assert B43-F)
(set-info :status sat)
(check-sat)
(push 1)
(assert B49-F)
(set-info :status unsat)
(check-sat)
(pop 1)
(push 1)
(assert B66-F)
(set-info :status sat)
(check-sat)
(push 1)
(assert B62-F)
(set-info :status sat)
(check-sat)
(push 1)
(assert B69-F)
(set-info :status sat)
(check-sat)
(push 1)
(assert B75-F)
(set-info :status sat)
(check-sat)
(push 1)
(assert B56-F)
(set-info :status sat)
(check-sat)
(push 1)
(assert B55-F)
(set-info :status sat)
(check-sat)
(push 1)
(assert B63-F)
(set-info :status sat)
(check-sat)
(push 1)
(assert B60-F)
(set-info :status sat)
(check-sat)
(push 1)
(assert B42-F)
(set-info :status sat)
(check-sat)
(push 1)
(assert B73-F)
(set-info :status sat)
(check-sat)
(push 1)
(assert B57-F)
(set-info :status sat)
(check-sat)
(push 1)
(assert B61-F)
(set-info :status sat)
(check-sat)
(exit)

